
Gurobi 7.5.2 (linux64) logging started Mon Apr 23 16:14:43 2018

Academic license - for non-commercial use only

Gurobi 7.5.2 (linux64) logging started Mon Apr 23 16:14:45 2018

Academic license - for non-commercial use only

Gurobi 7.5.2 (linux64) logging started Mon Apr 23 16:14:49 2018

Academic license - for non-commercial use only

Gurobi 7.5.2 (linux64) logging started Mon Apr 23 16:15:21 2018

Academic license - for non-commercial use only

Gurobi 7.5.2 (linux64) logging started Mon Apr 23 16:16:11 2018

Academic license - for non-commercial use only

Gurobi 7.5.2 (linux64) logging started Mon Apr 23 16:16:14 2018

Academic license - for non-commercial use only

Gurobi 7.5.2 (linux64) logging started Mon Apr 23 16:16:29 2018

Academic license - for non-commercial use only

Gurobi 7.5.2 (linux64) logging started Mon Apr 23 16:20:00 2018

Academic license - for non-commercial use only

Gurobi 7.5.2 (linux64) logging started Mon Apr 23 16:20:11 2018

Academic license - for non-commercial use only

Gurobi 7.5.2 (linux64) logging started Mon Apr 23 16:20:23 2018

Academic license - for non-commercial use only

Gurobi 7.5.2 (linux64) logging started Mon Apr 23 16:20:38 2018

Academic license - for non-commercial use only

Gurobi 7.5.2 (linux64) logging started Mon Apr 23 16:21:29 2018

Academic license - for non-commercial use only
